istanza_0.txt
istanza_0
224
24
6
106.14,255.45,422.22,270.80,35.75,260.56
1,0,0,1,1,0,1,1,0,1,0,1,1,1,0,1,0,1,0,1,1,1,1,0,1,0,1,1,0,1,0,1,1,1,0,0,1,0,0,0,0,1,1,1,0,0,0,1,1,0,1,1,1,0,0,1,1,0,0,1,0,1,1,1,0,1,0,1,0,0,0,1,0,0,1,0,0,1,0,1,0,1,1,1,1,1,1,0,1,1,1,1,0,1,0,0,0,1,1,0,0,0,1,1,1,1,0,1,0,1,1,0,0,1,1,0,0,1,1,0,1,1,0,1,0,0,1,0,1,0,0,1,1,0,1,1,0,0,1,0,0,0,0,1,0,0,1,0,0,1,0,0,0,0,1,0,1,1,0,1,1,1,0,0,0,0,0,0,0,1,0,0,1,0,1,0,1,0,1,1,1,1,0,0,0,0,1,1,1,1,0,1,0,1,1,1,0,1,1,0,1,0,1,1,1,1,0,0,1,1,1,0,0,0,1,1,1,0,1,1,0,0,1,1
6,3,3,1,4,4,2,4,1,3,4,5,6,4,4,2,6,4,2,2,3,3,1,2,5,1,2,5,4,1,4,1,5,3,3,3,2,4,1,4,2,5,1,4,2,1,6,3,3,1,5,4,2,5,6,4,4,2,4,5,5,2,1,4,3,1,2,1,1,6,6,4,4,5,3,5,4,3,5,2,5,4,4,3,2,3,2,3,2,3,6,3,3,2,4,1,2,5,2,2,5,2,6,1,6,3,6,1,3,4,2,4,1,1,2,3,4,2,1,1,3,2,4,1,2,5,5,2,1,6,5,6,6,1,3,6,3,3,4,5,1,4,6,4,2,5,5,5,5,4,2,6,3,5,3,2,4,5,4,5,5,4,3,2,6,3,6,3,5,4,1,3,1,3,2,6,4,1,5,5,6,4,4,1,6,1,3,3,1,2,5,5,2,4,2,4,1,2,3,6,6,5,6,6,2,1,6,2,6,2,3,1,2,6,5,3,1,6,3,6,5,2,3,3
7,24,50,40,48,5,4,12
05:00,22:00
852,807,940,913,888,771,726