istanza_0.log

Gurobi 9.5.1 (linux64, Java) logging started ven 10 feb 2023, 00:08:00

Set parameter Username
Academic license - for non-commercial use only - expires 2023-12-01
Set parameter Presolve to value 2
Presolve removed 203392 rows and 10976 columns (presolve time = 5s) ...
Presolve removed 217504 rows and 10976 columns
Presolve time: 7.56s
Gurobi Optimizer version 9.5.1 build v9.5.1rc2 (linux64)
Thread count: 2 physical cores, 4 logical processors, using up to 4 threads
Optimize a model with 406343 rows, 39200 columns and 1479520 nonzeros
Model fingerprint: 0x6d0d97df
Variable types: 0 continuous, 39200 integer (39200 binary)
Coefficient statistics:
  Matrix range     [1e+00, 1e+01]
  Objective range  [4e+01, 4e+02]
  Bounds range     [1e+00, 1e+00]
  RHS range        [1e+00, 9e+02]
Presolve removed 203392 rows and 10976 columns (presolve time = 5s) ...
Presolve removed 218302 rows and 10976 columns (presolve time = 10s) ...
Presolve removed 218302 rows and 10976 columns
Presolve time: 10.75s
Presolved: 188041 rows, 28224 columns, 826552 nonzeros
Variable types: 0 continuous, 28224 integer (28224 binary)

Deterministic concurrent LP optimizer: primal and dual simplex
Showing first log only...

Root relaxation presolve removed 224 rows and 0 columns
Root relaxation presolved: 187817 rows, 28448 columns, 800120 nonzeros


Root simplex log...

Iteration    Objective       Primal Inf.    Dual Inf.      Time
       0    1.6063604e+06   0.000000e+00   5.994583e+03     15s
    1477    1.6063610e+06   0.000000e+00   1.639391e+04     15s
    4009    1.6063604e+06   0.000000e+00   0.000000e+00     16s
    4009    1.6063604e+06   0.000000e+00   0.000000e+00     16s
    4009    1.6063604e+06   0.000000e+00   0.000000e+00     16s

Use crossover to convert LP symmetric solution to basic solution...

Root crossover log...

       0 DPushes remaining with DInf 0.0000000e+00                16s

    9306 PPushes remaining with PInf 0.0000000e+00                16s
Concurrent spin time: 0.01s

Solved with dual simplex

Root relaxation: objective 1.606360e+06, 9086 iterations, 5.18 seconds (1.52 work units)
Total elapsed time = 22.64s

    Nodes    |    Current Node    |     Objective Bounds      |     Work
 Expl Unexpl |  Obj  Depth IntInf | Incumbent    BestBd   Gap | It/Node Time

H    0     0                    1606360.3920    0.00000   100%     -   22s
     0     0          -    0      1606360.39 1606360.39  0.00%     -   23s

Explored 1 nodes (16415 simplex iterations) in 23.69 seconds (13.68 work units)
Thread count was 4 (of 4 available processors)

Solution count 1: 1.60636e+06 

Optimal solution found (tolerance 1.00e-04)
Best objective 1.606360392018e+06, best bound 1.606360392018e+06, gap 0.0000%
Presolve removed 203392 rows and 10976 columns (presolve time = 5s) ...
Presolve removed 217504 rows and 10976 columns
Presolve time: 8.09s
Gurobi Optimizer version 9.5.1 build v9.5.1rc2 (linux64)
Thread count: 2 physical cores, 4 logical processors, using up to 4 threads
Optimize a model with 406345 rows, 39200 columns and 1479604 nonzeros
Model fingerprint: 0x44ac6973
Variable types: 0 continuous, 39200 integer (39200 binary)
Coefficient statistics:
  Matrix range     [1e+00, 1e+01]
  Objective range  [4e+01, 4e+02]
  Bounds range     [1e+00, 1e+00]
  RHS range        [1e+00, 9e+02]

MIP start from previous solve did not produce a new incumbent solution
MIP start from previous solve violates constraint vincoloPersonaleMinimo_giorno0_cat2_fasciaDa15a17 by 9.000000000

Presolve removed 203392 rows and 10976 columns (presolve time = 5s) ...
Presolve removed 218302 rows and 10976 columns (presolve time = 10s) ...
Presolve removed 218302 rows and 10976 columns
Presolve time: 11.06s
Presolved: 188043 rows, 28224 columns, 826636 nonzeros
Variable types: 0 continuous, 28224 integer (28224 binary)

Deterministic concurrent LP optimizer: primal and dual simplex
Showing first log only...

Root relaxation presolve removed 224 rows and 0 columns
Root relaxation presolved: 187819 rows, 28448 columns, 800204 nonzeros


Root simplex log...

Iteration    Objective       Primal Inf.    Dual Inf.      Time
       0    1.6063604e+06   0.000000e+00   6.014583e+03     15s
    4071    1.6063604e+06   0.000000e+00   0.000000e+00     16s
    4071    1.6063604e+06   0.000000e+00   0.000000e+00     16s
    4071    1.6063604e+06   0.000000e+00   0.000000e+00     16s

Use crossover to convert LP symmetric solution to basic solution...

Root crossover log...

       0 DPushes remaining with DInf 0.0000000e+00                16s

    8876 PPushes remaining with PInf 0.0000000e+00                16s
Concurrent spin time: 0.02s

Solved with dual simplex

Root relaxation: objective 1.606360e+06, 8819 iterations, 5.78 seconds (1.59 work units)
Total elapsed time = 23.69s

    Nodes    |    Current Node    |     Objective Bounds      |     Work
 Expl Unexpl |  Obj  Depth IntInf | Incumbent    BestBd   Gap | It/Node Time

H    0     0                    1606360.3920    0.00000   100%     -   23s
     0     0          -    0      1606360.39 1606360.39  0.00%     -   24s

Explored 1 nodes (13820 simplex iterations) in 24.17 seconds (13.63 work units)
Thread count was 4 (of 4 available processors)

Solution count 1: 1.60636e+06 

Optimal solution found (tolerance 1.00e-04)
Best objective 1.606360392018e+06, best bound 1.606360392018e+06, gap 0.0000%
Warning: linear constraint 406343 and linear constraint 406344 have the same name "vincoloPersonaleMinimo_giorno0_cat2_fasciaDa15a17"
